150
[16,17,18,20,21,22,24,25,26,28,29,30,31,32,34,35,36,37,39,40,41,44,45,47,49,50,52,53,54,55,57,59,60,63,66,70,72,73,74,75,76,77,78,80,81,85,86,87,88,89,91,93,97,98,100,101,103,105]
[1,3,3,1,1,1,1,2,1,1,2,2,2,1,1,2,1,1,2,1,3,2,1,3,1,1,1,3,2,1,2,1,1,2,2,1,1,1,3,2,1,1,2,1,2,2,3,1,1,1,1,4,3,3,2,2,5,1]
